************************************************************************
file with basedata            : md349_.bas
initial value random generator: 1185085399
************************************************************************
projects                      :  1
jobs (incl. supersource/sink ):  22
horizon                       :  171
RESOURCES
  - renewable                 :  2   R
  - nonrenewable              :  2   N
  - doubly constrained        :  0   D
************************************************************************
PROJECT INFORMATION:
pronr.  #jobs rel.date duedate tardcost  MPM-Time
    1     20      0       23       14       23
************************************************************************
PRECEDENCE RELATIONS:
jobnr.    #modes  #successors   successors
   1        1          3           2   3   4
   2        3          3           5   7  15
   3        3          3           6   9  10
   4        3          3           7   8   9
   5        3          1          20
   6        3          3          12  13  17
   7        3          1          16
   8        3          3          17  18  21
   9        3          3          11  12  14
  10        3          2          12  18
  11        3          1          19
  12        3          1          16
  13        3          3          14  15  18
  14        3          1          16
  15        3          2          20  21
  16        3          2          19  21
  17        3          1          19
  18        3          1          20
  19        3          1          22
  20        3          1          22
  21        3          1          22
  22        1          0        
************************************************************************
REQUESTS/DURATIONS:
jobnr. mode duration  R 1  R 2  N 1  N 2
------------------------------------------------------------------------
  1      1     0       0    0    0    0
  2      1     2       7    8    5    0
         2     6       6    6    0    7
         3     9       6    3    0    4
  3      1     4       6    6    7    0
         2     6       5    6    5    0
         3     8       1    5    3    0
  4      1     1       2   10    7    0
         2     7       2    7    0    6
         3    10       1    3    4    0
  5      1     7       7    5    4    0
         2     8       7    2    0    8
         3     9       7    2    4    0
  6      1     1       5    7    0    6
         2     6       4    7    0    4
         3     7       4    6    0    3
  7      1     4       4    3    0    4
         2     4       4    3    9    0
         3     8       3    3    0    5
  8      1     2       6    7    5    0
         2     8       4    6    0    8
         3    10       4    6    0    5
  9      1     6      10    8    7    0
         2     7       9    8    0    8
         3     9       9    7    0    7
 10      1     4       7    8    3    0
         2     4       7    7    0    3
         3    10       6    7    0    1
 11      1     2       8    7    6    0
         2     3       7    4    4    0
         3     6       4    4    3    0
 12      1     5       4    7    6    0
         2     8       4    4    0    3
         3     8       4    2    5    0
 13      1     4       9   10   10    0
         2     6       5   10    0    5
         3     7       5   10    1    0
 14      1     1       6    7    3    0
         2     6       5    7    2    0
         3    10       3    7    2    0
 15      1     1       7   10    8    0
         2     3       7    6    7    0
         3     9       7    5    0    8
 16      1     4       3    5    0    3
         2     9       3    4    6    0
         3    10       2    4    4    0
 17      1     3       3    4   10    0
         2     4       3    4    5    0
         3    10       2    3    3    0
 18      1     8       7    5    0    9
         2     9       3    4    0    9
         3     9       4    5    0    8
 19      1     1       7    7    6    0
         2     8       6    5    0    2
         3     9       6    3    5    0
 20      1     2       6    7   10    0
         2     6       5    6    9    0
         3     7       3    5    0    7
 21      1     4       2    7    8    0
         2     6       1    5    6    0
         3     6       2    5    0    9
 22      1     0       0    0    0    0
************************************************************************
RESOURCEAVAILABILITIES:
  R 1  R 2  N 1  N 2
   17   17  120   97
************************************************************************
MAXIMAL LAGS:
from  to  type  delay
    1   12   ES      0
    1    2   ES      0
    2   12   ES      0
    1    3   ES      0
    3   12   ES      0
    1    4   ES      0
    4   12   ES      0
    1    5   ES      0
    5   12   ES      0
    1    6   ES      0
    6   12   ES      0
    1    7   ES      0
    7   12   ES      0
    1    8   ES      0
    8   12   ES      0
    1    9   ES      0
    9   12   ES      0
    1   10   ES      0
   10   12   ES      0
    1   11   ES      0
   11   12   ES      0
    1   12   ES      0
    2    5   SS     10
    2    5   SE     10
    2    5   ES     -9
    2    5   EE      0
    2    7   SS      5
    2    7   SE      4
    2    7   ES    -11
    2    7   EE     10
    2   15   SS    -11
    2   15   SE     12
    2   15   ES     12
    2   15   EE     -2
    3    6   SS     -5
    3    6   SE      3
    3    6   ES      5
    3    6   EE     12
    3    9   SS     10
    3    9   SE      7
    3    9   ES     -6
    3    9   EE    -10
    3   10   SS      5
    3   10   SE      0
    3   10   ES      7
    3   10   EE     -8
    4    7   SS      4
    4    7   SE      6
    4    7   ES      3
    4    7   EE     -7
    4    8   SS      4
    4    8   SE     -4
    4    8   ES     -2
    4    8   EE     -3
    4    9   SS    -11
    4    9   SE      9
    4    9   ES     -9
    4    9   EE      4
    5   20   SS     -8
    5   20   SE     -7
    5   20   ES     11
    5   20   EE     12
    6   13   SS      3
    6   13   SE     -7
    6   13   ES    -12
    6   13   EE    -11
    6   17   SS     -7
    6   17   SE      5
    6   17   ES     -6
    6   17   EE      7
    7   16   SS     -3
    7   16   SE      5
    7   16   ES     -8
    7   16   EE      8
    8   17   SS     -5
    8   17   SE     -8
    8   17   ES      9
    8   17   EE     -8
    8   18   SS    -11
    8   18   SE     -4
    8   18   ES    -10
    8   18   EE     -4
    8   21   SS     -4
    8   21   SE      3
    8   21   ES     -4
    8   21   EE      8
    9   11   SS     -6
    9   11   SE     11
    9   11   ES     -8
    9   11   EE     11
    9   14   SS      4
    9   14   SE     11
    9   14   ES     -9
    9   14   EE    -10
   10   18   SS      1
   10   18   SE     -1
   10   18   ES      6
   10   18   EE      7
   11   19   SS     10
   11   19   SE     -6
   11   19   ES     10
   11   19   EE    -12
   12   16   SS      9
   12   16   SE     -8
   12   16   ES     11
   12   16   EE      8
   13   14   SS     11
   13   14   SE    -12
   13   14   ES     -8
   13   14   EE    -11
   13   15   SS      8
   13   15   SE     -6
   13   15   ES    -11
   13   15   EE     -4
   13   18   SS     10
   13   18   SE     10
   13   18   ES     -8
   13   18   EE     -5
   14   16   SS     -8
   14   16   SE     -8
   14   16   ES     10
   14   16   EE      2
   15   20   SS      3
   15   20   SE     -1
   15   20   ES     -8
   15   20   EE     10
   15   21   SS     -9
   15   21   SE     -5
   15   21   ES     -1
   15   21   EE     10
   16   19   SS     -6
   16   19   SE    -11
   16   19   ES     12
   16   19   EE     12
   16   21   SS     -8
   16   21   SE      4
   16   21   ES    -10
   16   21   EE      1
   17   19   SS     -2
   17   19   SE    -11
   17   19   ES      1
   17   19   EE     -4
   18   20   SS      0
   18   20   SE     -6
   18   20   ES    -12
   18   20   EE      9
   19   22   SS    -11
   19   22   SE     -1
   19   22   ES     10
   19   22   EE      7
   20   22   SS     -5
   20   22   SE      2
   20   22   ES      2
   20   22   EE      2
   21   22   SS     -1
   21   22   SE      0
   21   22   ES      6
   21   22   EE     -9
************************************************************************
